100
1000
200
198
196
196
196
195
195
195
193
193
193
193
193
192
192
192
192
191
190
190
190
188
187
187
187
187
187
186
186
186
185
185
185
184
184
184
183
182
182
181
181
181
180
179
179
178
178
177
176
176
175
175
174
174
174
173
171
171
171
170
170
169
169
169
168
167
166
165
165
164
164
164
164
163
162
161
161
161
159
159
158
158
158
157
157
156
156
156
155
155
154
154
153
153
152
151
151
150
150
150
